(declare-const oldx_init Int)
(declare-const oldy_init Int)
(declare-const _tmp__init Int)
(declare-const x_init Int)
(declare-const y_init Int)
(declare-const c_0 Int)
(declare-const c_1 Int)
(declare-const c_2 Int)
(declare-const c_3 Int)
(declare-const c_4 Int)
(declare-const c_5 Int)
(declare-const c_6 Int)
(declare-const c_7 Int)
(declare-const c_8 Int)
(declare-const c_9 Int)
(declare-const c_10 Int)
(declare-const c_11 Int)
(declare-const c_12 Int)
(declare-const c_13 Int)
(declare-const c_14 Int)
(declare-const c_15 Int)
(declare-const c_16 Int)
(declare-const c_17 Int)
(declare-const c_18 Int)
(declare-const c_19 Int)
(declare-const c_20 Int)
(declare-const c_21 Int)
(declare-const c_22 Int)
(declare-const c_23 Int)
(declare-const c_24 Int)
(declare-const c_25 Int)
(declare-const c_26 Int)
(declare-const c_27 Int)
(declare-const c_28 Int)
(declare-const c_29 Int)
(declare-const c_30 Int)
(declare-const c_31 Int)
(declare-const c_32 Int)
(declare-const c_33 Int)
(declare-const c_34 Int)
(assert (< c_5 0))
(assert (and (>= (+ (* 1 c_6 ) (* (- 1) oldx_init ) ) 0) (>= (+ (* (- 1) c_6 ) (* 1 oldx_init ) ) 0) (>= (+ (* 1 c_7 ) (* (- 1) oldy_init ) ) 0) (>= (+ (* (- 1) c_7 ) (* 1 oldy_init ) ) 0) (>= (+ (* (- 1) _tmp__init ) (* 1 c_8 ) ) 0) (>= (+ (* 1 _tmp__init ) (* (- 1) c_8 ) ) 0) (>= (+ (* 1 c_9 ) (* (- 1) x_init ) ) 0) (>= (+ (* (- 1) c_9 ) (* 1 x_init ) ) 0) (>= (+ (* 1 c_10 ) (* (- 1) y_init ) ) 0) (>= (+ (* (- 1) c_10 ) (* 1 y_init ) ) 0) ))
(assert (forall ((oldx Real) (oldy Real) (_tmp_ Real) (x Real) (y Real) (_r_0 Real) ) (=> (and (>= (+ (* (- 1) 1) (* (- 1) _tmp_ c_12 ) (* (- 1) c_11 ) (* (- 1) c_13 oldx ) (* (- 1) c_14 oldy ) (* (- 1) c_15 x ) (* (- 1) c_16 y ) ) 0) (>= (+ (* 1 c_6 ) (* (- 1) oldx ) ) 0) (>= (+ (* (- 1) c_6 ) (* 1 oldx ) ) 0) (>= (+ (* 1 c_7 ) (* (- 1) oldy ) ) 0) (>= (+ (* (- 1) c_7 ) (* 1 oldy ) ) 0) (>= (+ (* (- 1) _tmp_ ) (* 1 c_8 ) ) 0) (>= (+ (* 1 _tmp_ ) (* (- 1) c_8 ) ) 0) (>= (+ (* 1 c_9 ) (* (- 1) x ) ) 0) (>= (+ (* (- 1) c_9 ) (* 1 x ) ) 0) (>= (+ (* 1 c_10 ) (* (- 1) y ) ) 0) (>= (+ (* (- 1) c_10 ) (* 1 y ) ) 0) ) (>= (+ (* 1 _tmp_ c_24 ) (* 1 c_23 ) (* 1 c_25 oldx ) (* 1 c_26 oldy ) (* 1 c_27 x ) (* 1 c_28 y ) ) 0) )))
(assert (forall ((oldx Real) (oldy Real) (_tmp_ Real) (x Real) (y Real) (_r_0 Real) ) (=> (and (>= (+ (* (- 1) 1) (* (- 1) _tmp_ c_12 ) (* (- 1) c_11 ) (* (- 1) c_13 oldx ) (* (- 1) c_14 oldy ) (* (- 1) c_15 x ) (* (- 1) c_16 y ) ) 0) (>= (+ (* 1 c_6 ) (* (- 1) oldx ) ) 0) (>= (+ (* (- 1) c_6 ) (* 1 oldx ) ) 0) (>= (+ (* 1 c_7 ) (* (- 1) oldy ) ) 0) (>= (+ (* (- 1) c_7 ) (* 1 oldy ) ) 0) (>= (+ (* (- 1) _tmp_ ) (* 1 c_8 ) ) 0) (>= (+ (* 1 _tmp_ ) (* (- 1) c_8 ) ) 0) (>= (+ (* 1 c_9 ) (* (- 1) x ) ) 0) (>= (+ (* (- 1) c_9 ) (* 1 x ) ) 0) (>= (+ (* 1 c_10 ) (* (- 1) y ) ) 0) (>= (+ (* (- 1) c_10 ) (* 1 y ) ) 0) ) (>= (+ (* 1 _tmp_ c_30 ) (* 1 c_29 ) (* 1 c_31 oldx ) (* 1 c_32 oldy ) (* 1 c_33 x ) (* 1 c_34 y ) ) 0) )))
(assert (forall ((oldx Real) (oldy Real) (_tmp_ Real) (x Real) (y Real) (_r_0 Real) ) (=> (and (>= (+ (* (- 1) 1) (* (- 1) _tmp_ c_18 ) (* (- 1) c_17 ) (* (- 1) c_19 oldx ) (* (- 1) c_20 oldy ) (* (- 1) c_21 x ) (* (- 1) c_22 y ) ) 0) (>= (+ (* 1 c_6 ) (* (- 1) oldx ) ) 0) (>= (+ (* (- 1) c_6 ) (* 1 oldx ) ) 0) (>= (+ (* 1 c_7 ) (* (- 1) oldy ) ) 0) (>= (+ (* (- 1) c_7 ) (* 1 oldy ) ) 0) (>= (+ (* (- 1) _tmp_ ) (* 1 c_8 ) ) 0) (>= (+ (* 1 _tmp_ ) (* (- 1) c_8 ) ) 0) (>= (+ (* 1 c_9 ) (* (- 1) x ) ) 0) (>= (+ (* (- 1) c_9 ) (* 1 x ) ) 0) (>= (+ (* 1 c_10 ) (* (- 1) y ) ) 0) (>= (+ (* (- 1) c_10 ) (* 1 y ) ) 0) ) (>= (+ (* 1 _tmp_ c_24 ) (* 1 c_23 ) (* 1 c_25 oldx ) (* 1 c_26 oldy ) (* 1 c_27 x ) (* 1 c_28 y ) ) 0) )))
(assert (forall ((oldx Real) (oldy Real) (_tmp_ Real) (x Real) (y Real) (_r_0 Real) ) (=> (and (>= (+ (* (- 1) 1) (* (- 1) _tmp_ c_18 ) (* (- 1) c_17 ) (* (- 1) c_19 oldx ) (* (- 1) c_20 oldy ) (* (- 1) c_21 x ) (* (- 1) c_22 y ) ) 0) (>= (+ (* 1 c_6 ) (* (- 1) oldx ) ) 0) (>= (+ (* (- 1) c_6 ) (* 1 oldx ) ) 0) (>= (+ (* 1 c_7 ) (* (- 1) oldy ) ) 0) (>= (+ (* (- 1) c_7 ) (* 1 oldy ) ) 0) (>= (+ (* (- 1) _tmp_ ) (* 1 c_8 ) ) 0) (>= (+ (* 1 _tmp_ ) (* (- 1) c_8 ) ) 0) (>= (+ (* 1 c_9 ) (* (- 1) x ) ) 0) (>= (+ (* (- 1) c_9 ) (* 1 x ) ) 0) (>= (+ (* 1 c_10 ) (* (- 1) y ) ) 0) (>= (+ (* (- 1) c_10 ) (* 1 y ) ) 0) ) (>= (+ (* 1 _tmp_ c_30 ) (* 1 c_29 ) (* 1 c_31 oldx ) (* 1 c_32 oldy ) (* 1 c_33 x ) (* 1 c_34 y ) ) 0) )))
(assert (forall ((oldx Real) (oldy Real) (_tmp_ Real) (x Real) (y Real) (_r_0 Real) ) (=> (and (>= (+ (* (- 1) 1) (* (- 1) _r_0 c_12 ) (* (- 1) c_11 ) (* (- 1) c_13 x ) (* (- 1) c_14 y ) (* 1 c_15 ) (* (- 1) c_15 x ) (* (- 1) c_16 x ) ) 0) (>= (* (- 1) _r_0 ) 0) (>= (+ (* 1 _r_0 ) (* (- 1) _tmp_ c_2 ) (* (- 1) c_0 x ) (* (- 1) c_1 y ) (* (- 1) c_3 x ) (* (- 1) c_4 y ) ) 0) (>= (+ (* (- 1) _r_0 ) (* 1 _tmp_ c_2 ) (* 1 c_0 x ) (* 1 c_1 y ) (* 1 c_3 x ) (* 1 c_4 y ) ) 0) (>= (+ (* (- 1) 1) (* 1 x ) ) 0) (>= (+ (* (- 1) 1) (* 1 y ) ) 0) (>= (+ (* 1 _tmp_ c_12 ) (* 1 c_11 ) (* 1 c_13 oldx ) (* 1 c_14 oldy ) (* 1 c_15 x ) (* 1 c_16 y ) ) 0) (>= (+ (* 1 _tmp_ c_18 ) (* 1 c_17 ) (* 1 c_19 oldx ) (* 1 c_20 oldy ) (* 1 c_21 x ) (* 1 c_22 y ) ) 0) ) (>= (+ (* 1 _r_0 c_24 ) (* 1 c_23 ) (* 1 c_25 x ) (* 1 c_26 y ) (* (- 1) c_27 ) (* 1 c_27 x ) (* 1 c_28 x ) ) 0) )))
(assert (forall ((oldx Real) (oldy Real) (_tmp_ Real) (x Real) (y Real) (_r_0 Real) ) (=> (and (>= (+ (* (- 1) 1) (* (- 1) _r_0 c_12 ) (* (- 1) c_11 ) (* (- 1) c_13 x ) (* (- 1) c_14 y ) (* 1 c_15 ) (* (- 1) c_15 x ) (* (- 1) c_16 x ) ) 0) (>= (* (- 1) _r_0 ) 0) (>= (+ (* 1 _r_0 ) (* (- 1) _tmp_ c_2 ) (* (- 1) c_0 x ) (* (- 1) c_1 y ) (* (- 1) c_3 x ) (* (- 1) c_4 y ) ) 0) (>= (+ (* (- 1) _r_0 ) (* 1 _tmp_ c_2 ) (* 1 c_0 x ) (* 1 c_1 y ) (* 1 c_3 x ) (* 1 c_4 y ) ) 0) (>= (+ (* (- 1) 1) (* 1 x ) ) 0) (>= (+ (* (- 1) 1) (* 1 y ) ) 0) (>= (+ (* 1 _tmp_ c_12 ) (* 1 c_11 ) (* 1 c_13 oldx ) (* 1 c_14 oldy ) (* 1 c_15 x ) (* 1 c_16 y ) ) 0) (>= (+ (* 1 _tmp_ c_18 ) (* 1 c_17 ) (* 1 c_19 oldx ) (* 1 c_20 oldy ) (* 1 c_21 x ) (* 1 c_22 y ) ) 0) ) (>= (+ (* 1 _r_0 c_30 ) (* 1 c_29 ) (* 1 c_31 x ) (* 1 c_32 y ) (* (- 1) c_33 ) (* 1 c_33 x ) (* 1 c_34 x ) ) 0) )))
(assert (forall ((oldx Real) (oldy Real) (_tmp_ Real) (x Real) (y Real) (_r_0 Real) ) (=> (and (>= (+ (* (- 1) 1) (* (- 1) _r_0 c_18 ) (* (- 1) c_17 ) (* (- 1) c_19 x ) (* (- 1) c_20 y ) (* 1 c_21 ) (* (- 1) c_21 x ) (* (- 1) c_22 x ) ) 0) (>= (* (- 1) _r_0 ) 0) (>= (+ (* 1 _r_0 ) (* (- 1) _tmp_ c_2 ) (* (- 1) c_0 x ) (* (- 1) c_1 y ) (* (- 1) c_3 x ) (* (- 1) c_4 y ) ) 0) (>= (+ (* (- 1) _r_0 ) (* 1 _tmp_ c_2 ) (* 1 c_0 x ) (* 1 c_1 y ) (* 1 c_3 x ) (* 1 c_4 y ) ) 0) (>= (+ (* (- 1) 1) (* 1 x ) ) 0) (>= (+ (* (- 1) 1) (* 1 y ) ) 0) (>= (+ (* 1 _tmp_ c_12 ) (* 1 c_11 ) (* 1 c_13 oldx ) (* 1 c_14 oldy ) (* 1 c_15 x ) (* 1 c_16 y ) ) 0) (>= (+ (* 1 _tmp_ c_18 ) (* 1 c_17 ) (* 1 c_19 oldx ) (* 1 c_20 oldy ) (* 1 c_21 x ) (* 1 c_22 y ) ) 0) ) (>= (+ (* 1 _r_0 c_24 ) (* 1 c_23 ) (* 1 c_25 x ) (* 1 c_26 y ) (* (- 1) c_27 ) (* 1 c_27 x ) (* 1 c_28 x ) ) 0) )))
(assert (forall ((oldx Real) (oldy Real) (_tmp_ Real) (x Real) (y Real) (_r_0 Real) ) (=> (and (>= (+ (* (- 1) 1) (* (- 1) _r_0 c_18 ) (* (- 1) c_17 ) (* (- 1) c_19 x ) (* (- 1) c_20 y ) (* 1 c_21 ) (* (- 1) c_21 x ) (* (- 1) c_22 x ) ) 0) (>= (* (- 1) _r_0 ) 0) (>= (+ (* 1 _r_0 ) (* (- 1) _tmp_ c_2 ) (* (- 1) c_0 x ) (* (- 1) c_1 y ) (* (- 1) c_3 x ) (* (- 1) c_4 y ) ) 0) (>= (+ (* (- 1) _r_0 ) (* 1 _tmp_ c_2 ) (* 1 c_0 x ) (* 1 c_1 y ) (* 1 c_3 x ) (* 1 c_4 y ) ) 0) (>= (+ (* (- 1) 1) (* 1 x ) ) 0) (>= (+ (* (- 1) 1) (* 1 y ) ) 0) (>= (+ (* 1 _tmp_ c_12 ) (* 1 c_11 ) (* 1 c_13 oldx ) (* 1 c_14 oldy ) (* 1 c_15 x ) (* 1 c_16 y ) ) 0) (>= (+ (* 1 _tmp_ c_18 ) (* 1 c_17 ) (* 1 c_19 oldx ) (* 1 c_20 oldy ) (* 1 c_21 x ) (* 1 c_22 y ) ) 0) ) (>= (+ (* 1 _r_0 c_30 ) (* 1 c_29 ) (* 1 c_31 x ) (* 1 c_32 y ) (* (- 1) c_33 ) (* 1 c_33 x ) (* 1 c_34 x ) ) 0) )))
(assert (forall ((oldx Real) (oldy Real) (_tmp_ Real) (x Real) (y Real) (_r_0 Real) ) (=> (and (>= (+ (* (- 1) 1) (* (- 1) _r_0 c_12 ) (* (- 1) c_11 ) (* (- 1) c_13 x ) (* (- 1) c_14 y ) (* 1 c_15 ) (* (- 1) c_15 x ) (* (- 1) c_16 x ) ) 0) (>= (* (- 1) _r_0 ) 0) (>= (+ (* 1 _r_0 ) (* (- 1) _tmp_ c_2 ) (* (- 1) c_0 x ) (* (- 1) c_1 y ) (* (- 1) c_3 x ) (* (- 1) c_4 y ) ) 0) (>= (+ (* (- 1) _r_0 ) (* 1 _tmp_ c_2 ) (* 1 c_0 x ) (* 1 c_1 y ) (* 1 c_3 x ) (* 1 c_4 y ) ) 0) (>= (+ (* (- 1) 1) (* 1 x ) ) 0) (>= (+ (* (- 1) 1) (* 1 y ) ) 0) (>= (+ (* 1 _tmp_ c_24 ) (* 1 c_23 ) (* 1 c_25 oldx ) (* 1 c_26 oldy ) (* 1 c_27 x ) (* 1 c_28 y ) ) 0) (>= (+ (* 1 _tmp_ c_30 ) (* 1 c_29 ) (* 1 c_31 oldx ) (* 1 c_32 oldy ) (* 1 c_33 x ) (* 1 c_34 y ) ) 0) ) (>= (+ (* 1 _r_0 c_24 ) (* 1 c_23 ) (* 1 c_25 x ) (* 1 c_26 y ) (* (- 1) c_27 ) (* 1 c_27 x ) (* 1 c_28 x ) ) 0) )))
(assert (forall ((oldx Real) (oldy Real) (_tmp_ Real) (x Real) (y Real) (_r_0 Real) ) (=> (and (>= (+ (* (- 1) 1) (* (- 1) _r_0 c_12 ) (* (- 1) c_11 ) (* (- 1) c_13 x ) (* (- 1) c_14 y ) (* 1 c_15 ) (* (- 1) c_15 x ) (* (- 1) c_16 x ) ) 0) (>= (* (- 1) _r_0 ) 0) (>= (+ (* 1 _r_0 ) (* (- 1) _tmp_ c_2 ) (* (- 1) c_0 x ) (* (- 1) c_1 y ) (* (- 1) c_3 x ) (* (- 1) c_4 y ) ) 0) (>= (+ (* (- 1) _r_0 ) (* 1 _tmp_ c_2 ) (* 1 c_0 x ) (* 1 c_1 y ) (* 1 c_3 x ) (* 1 c_4 y ) ) 0) (>= (+ (* (- 1) 1) (* 1 x ) ) 0) (>= (+ (* (- 1) 1) (* 1 y ) ) 0) (>= (+ (* 1 _tmp_ c_24 ) (* 1 c_23 ) (* 1 c_25 oldx ) (* 1 c_26 oldy ) (* 1 c_27 x ) (* 1 c_28 y ) ) 0) (>= (+ (* 1 _tmp_ c_30 ) (* 1 c_29 ) (* 1 c_31 oldx ) (* 1 c_32 oldy ) (* 1 c_33 x ) (* 1 c_34 y ) ) 0) ) (>= (+ (* 1 _r_0 c_30 ) (* 1 c_29 ) (* 1 c_31 x ) (* 1 c_32 y ) (* (- 1) c_33 ) (* 1 c_33 x ) (* 1 c_34 x ) ) 0) )))
(assert (forall ((oldx Real) (oldy Real) (_tmp_ Real) (x Real) (y Real) (_r_0 Real) ) (=> (and (>= (+ (* (- 1) 1) (* (- 1) _r_0 c_18 ) (* (- 1) c_17 ) (* (- 1) c_19 x ) (* (- 1) c_20 y ) (* 1 c_21 ) (* (- 1) c_21 x ) (* (- 1) c_22 x ) ) 0) (>= (* (- 1) _r_0 ) 0) (>= (+ (* 1 _r_0 ) (* (- 1) _tmp_ c_2 ) (* (- 1) c_0 x ) (* (- 1) c_1 y ) (* (- 1) c_3 x ) (* (- 1) c_4 y ) ) 0) (>= (+ (* (- 1) _r_0 ) (* 1 _tmp_ c_2 ) (* 1 c_0 x ) (* 1 c_1 y ) (* 1 c_3 x ) (* 1 c_4 y ) ) 0) (>= (+ (* (- 1) 1) (* 1 x ) ) 0) (>= (+ (* (- 1) 1) (* 1 y ) ) 0) (>= (+ (* 1 _tmp_ c_24 ) (* 1 c_23 ) (* 1 c_25 oldx ) (* 1 c_26 oldy ) (* 1 c_27 x ) (* 1 c_28 y ) ) 0) (>= (+ (* 1 _tmp_ c_30 ) (* 1 c_29 ) (* 1 c_31 oldx ) (* 1 c_32 oldy ) (* 1 c_33 x ) (* 1 c_34 y ) ) 0) ) (>= (+ (* 1 _r_0 c_24 ) (* 1 c_23 ) (* 1 c_25 x ) (* 1 c_26 y ) (* (- 1) c_27 ) (* 1 c_27 x ) (* 1 c_28 x ) ) 0) )))
(assert (forall ((oldx Real) (oldy Real) (_tmp_ Real) (x Real) (y Real) (_r_0 Real) ) (=> (and (>= (+ (* (- 1) 1) (* (- 1) _r_0 c_18 ) (* (- 1) c_17 ) (* (- 1) c_19 x ) (* (- 1) c_20 y ) (* 1 c_21 ) (* (- 1) c_21 x ) (* (- 1) c_22 x ) ) 0) (>= (* (- 1) _r_0 ) 0) (>= (+ (* 1 _r_0 ) (* (- 1) _tmp_ c_2 ) (* (- 1) c_0 x ) (* (- 1) c_1 y ) (* (- 1) c_3 x ) (* (- 1) c_4 y ) ) 0) (>= (+ (* (- 1) _r_0 ) (* 1 _tmp_ c_2 ) (* 1 c_0 x ) (* 1 c_1 y ) (* 1 c_3 x ) (* 1 c_4 y ) ) 0) (>= (+ (* (- 1) 1) (* 1 x ) ) 0) (>= (+ (* (- 1) 1) (* 1 y ) ) 0) (>= (+ (* 1 _tmp_ c_24 ) (* 1 c_23 ) (* 1 c_25 oldx ) (* 1 c_26 oldy ) (* 1 c_27 x ) (* 1 c_28 y ) ) 0) (>= (+ (* 1 _tmp_ c_30 ) (* 1 c_29 ) (* 1 c_31 oldx ) (* 1 c_32 oldy ) (* 1 c_33 x ) (* 1 c_34 y ) ) 0) ) (>= (+ (* 1 _r_0 c_30 ) (* 1 c_29 ) (* 1 c_31 x ) (* 1 c_32 y ) (* (- 1) c_33 ) (* 1 c_33 x ) (* 1 c_34 x ) ) 0) )))
(assert (forall ((oldx Real) (oldy Real) (_tmp_ Real) (x Real) (y Real) (_r_0 Real) ) (=> (and (>= (+ (* (- 1) 1) (* (- 1) _r_0 c_12 ) (* (- 1) c_11 ) (* (- 1) c_13 x ) (* (- 1) c_14 y ) (* 2 c_15 ) (* (- 1) c_15 y ) (* (- 1) c_16 ) (* (- 1) c_16 x ) ) 0) (>= (+ (* (- 1) 1) (* 1 _r_0 ) ) 0) (>= (+ (* 1 _r_0 ) (* (- 1) _tmp_ c_2 ) (* (- 1) c_0 x ) (* (- 1) c_1 y ) (* (- 1) c_3 x ) (* (- 1) c_4 y ) ) 0) (>= (+ (* (- 1) _r_0 ) (* 1 _tmp_ c_2 ) (* 1 c_0 x ) (* 1 c_1 y ) (* 1 c_3 x ) (* 1 c_4 y ) ) 0) (>= (+ (* (- 1) 1) (* 1 x ) ) 0) (>= (+ (* (- 1) 1) (* 1 y ) ) 0) (>= (+ (* 1 _tmp_ c_12 ) (* 1 c_11 ) (* 1 c_13 oldx ) (* 1 c_14 oldy ) (* 1 c_15 x ) (* 1 c_16 y ) ) 0) (>= (+ (* 1 _tmp_ c_18 ) (* 1 c_17 ) (* 1 c_19 oldx ) (* 1 c_20 oldy ) (* 1 c_21 x ) (* 1 c_22 y ) ) 0) ) (>= (+ (* 1 _r_0 c_24 ) (* 1 c_23 ) (* 1 c_25 x ) (* 1 c_26 y ) (* (- 2) c_27 ) (* 1 c_27 y ) (* 1 c_28 ) (* 1 c_28 x ) ) 0) )))
(assert (forall ((oldx Real) (oldy Real) (_tmp_ Real) (x Real) (y Real) (_r_0 Real) ) (=> (and (>= (+ (* (- 1) 1) (* (- 1) _r_0 c_12 ) (* (- 1) c_11 ) (* (- 1) c_13 x ) (* (- 1) c_14 y ) (* 2 c_15 ) (* (- 1) c_15 y ) (* (- 1) c_16 ) (* (- 1) c_16 x ) ) 0) (>= (+ (* (- 1) 1) (* 1 _r_0 ) ) 0) (>= (+ (* 1 _r_0 ) (* (- 1) _tmp_ c_2 ) (* (- 1) c_0 x ) (* (- 1) c_1 y ) (* (- 1) c_3 x ) (* (- 1) c_4 y ) ) 0) (>= (+ (* (- 1) _r_0 ) (* 1 _tmp_ c_2 ) (* 1 c_0 x ) (* 1 c_1 y ) (* 1 c_3 x ) (* 1 c_4 y ) ) 0) (>= (+ (* (- 1) 1) (* 1 x ) ) 0) (>= (+ (* (- 1) 1) (* 1 y ) ) 0) (>= (+ (* 1 _tmp_ c_12 ) (* 1 c_11 ) (* 1 c_13 oldx ) (* 1 c_14 oldy ) (* 1 c_15 x ) (* 1 c_16 y ) ) 0) (>= (+ (* 1 _tmp_ c_18 ) (* 1 c_17 ) (* 1 c_19 oldx ) (* 1 c_20 oldy ) (* 1 c_21 x ) (* 1 c_22 y ) ) 0) ) (>= (+ (* 1 _r_0 c_30 ) (* 1 c_29 ) (* 1 c_31 x ) (* 1 c_32 y ) (* (- 2) c_33 ) (* 1 c_33 y ) (* 1 c_34 ) (* 1 c_34 x ) ) 0) )))
(assert (forall ((oldx Real) (oldy Real) (_tmp_ Real) (x Real) (y Real) (_r_0 Real) ) (=> (and (>= (+ (* (- 1) 1) (* (- 1) _r_0 c_18 ) (* (- 1) c_17 ) (* (- 1) c_19 x ) (* (- 1) c_20 y ) (* 2 c_21 ) (* (- 1) c_21 y ) (* (- 1) c_22 ) (* (- 1) c_22 x ) ) 0) (>= (+ (* (- 1) 1) (* 1 _r_0 ) ) 0) (>= (+ (* 1 _r_0 ) (* (- 1) _tmp_ c_2 ) (* (- 1) c_0 x ) (* (- 1) c_1 y ) (* (- 1) c_3 x ) (* (- 1) c_4 y ) ) 0) (>= (+ (* (- 1) _r_0 ) (* 1 _tmp_ c_2 ) (* 1 c_0 x ) (* 1 c_1 y ) (* 1 c_3 x ) (* 1 c_4 y ) ) 0) (>= (+ (* (- 1) 1) (* 1 x ) ) 0) (>= (+ (* (- 1) 1) (* 1 y ) ) 0) (>= (+ (* 1 _tmp_ c_12 ) (* 1 c_11 ) (* 1 c_13 oldx ) (* 1 c_14 oldy ) (* 1 c_15 x ) (* 1 c_16 y ) ) 0) (>= (+ (* 1 _tmp_ c_18 ) (* 1 c_17 ) (* 1 c_19 oldx ) (* 1 c_20 oldy ) (* 1 c_21 x ) (* 1 c_22 y ) ) 0) ) (>= (+ (* 1 _r_0 c_24 ) (* 1 c_23 ) (* 1 c_25 x ) (* 1 c_26 y ) (* (- 2) c_27 ) (* 1 c_27 y ) (* 1 c_28 ) (* 1 c_28 x ) ) 0) )))
(assert (forall ((oldx Real) (oldy Real) (_tmp_ Real) (x Real) (y Real) (_r_0 Real) ) (=> (and (>= (+ (* (- 1) 1) (* (- 1) _r_0 c_18 ) (* (- 1) c_17 ) (* (- 1) c_19 x ) (* (- 1) c_20 y ) (* 2 c_21 ) (* (- 1) c_21 y ) (* (- 1) c_22 ) (* (- 1) c_22 x ) ) 0) (>= (+ (* (- 1) 1) (* 1 _r_0 ) ) 0) (>= (+ (* 1 _r_0 ) (* (- 1) _tmp_ c_2 ) (* (- 1) c_0 x ) (* (- 1) c_1 y ) (* (- 1) c_3 x ) (* (- 1) c_4 y ) ) 0) (>= (+ (* (- 1) _r_0 ) (* 1 _tmp_ c_2 ) (* 1 c_0 x ) (* 1 c_1 y ) (* 1 c_3 x ) (* 1 c_4 y ) ) 0) (>= (+ (* (- 1) 1) (* 1 x ) ) 0) (>= (+ (* (- 1) 1) (* 1 y ) ) 0) (>= (+ (* 1 _tmp_ c_12 ) (* 1 c_11 ) (* 1 c_13 oldx ) (* 1 c_14 oldy ) (* 1 c_15 x ) (* 1 c_16 y ) ) 0) (>= (+ (* 1 _tmp_ c_18 ) (* 1 c_17 ) (* 1 c_19 oldx ) (* 1 c_20 oldy ) (* 1 c_21 x ) (* 1 c_22 y ) ) 0) ) (>= (+ (* 1 _r_0 c_30 ) (* 1 c_29 ) (* 1 c_31 x ) (* 1 c_32 y ) (* (- 2) c_33 ) (* 1 c_33 y ) (* 1 c_34 ) (* 1 c_34 x ) ) 0) )))
(assert (forall ((oldx Real) (oldy Real) (_tmp_ Real) (x Real) (y Real) (_r_0 Real) ) (=> (and (>= (+ (* (- 1) 1) (* (- 1) _r_0 c_12 ) (* (- 1) c_11 ) (* (- 1) c_13 x ) (* (- 1) c_14 y ) (* 2 c_15 ) (* (- 1) c_15 y ) (* (- 1) c_16 ) (* (- 1) c_16 x ) ) 0) (>= (+ (* (- 1) 1) (* 1 _r_0 ) ) 0) (>= (+ (* 1 _r_0 ) (* (- 1) _tmp_ c_2 ) (* (- 1) c_0 x ) (* (- 1) c_1 y ) (* (- 1) c_3 x ) (* (- 1) c_4 y ) ) 0) (>= (+ (* (- 1) _r_0 ) (* 1 _tmp_ c_2 ) (* 1 c_0 x ) (* 1 c_1 y ) (* 1 c_3 x ) (* 1 c_4 y ) ) 0) (>= (+ (* (- 1) 1) (* 1 x ) ) 0) (>= (+ (* (- 1) 1) (* 1 y ) ) 0) (>= (+ (* 1 _tmp_ c_24 ) (* 1 c_23 ) (* 1 c_25 oldx ) (* 1 c_26 oldy ) (* 1 c_27 x ) (* 1 c_28 y ) ) 0) (>= (+ (* 1 _tmp_ c_30 ) (* 1 c_29 ) (* 1 c_31 oldx ) (* 1 c_32 oldy ) (* 1 c_33 x ) (* 1 c_34 y ) ) 0) ) (>= (+ (* 1 _r_0 c_24 ) (* 1 c_23 ) (* 1 c_25 x ) (* 1 c_26 y ) (* (- 2) c_27 ) (* 1 c_27 y ) (* 1 c_28 ) (* 1 c_28 x ) ) 0) )))
(assert (forall ((oldx Real) (oldy Real) (_tmp_ Real) (x Real) (y Real) (_r_0 Real) ) (=> (and (>= (+ (* (- 1) 1) (* (- 1) _r_0 c_12 ) (* (- 1) c_11 ) (* (- 1) c_13 x ) (* (- 1) c_14 y ) (* 2 c_15 ) (* (- 1) c_15 y ) (* (- 1) c_16 ) (* (- 1) c_16 x ) ) 0) (>= (+ (* (- 1) 1) (* 1 _r_0 ) ) 0) (>= (+ (* 1 _r_0 ) (* (- 1) _tmp_ c_2 ) (* (- 1) c_0 x ) (* (- 1) c_1 y ) (* (- 1) c_3 x ) (* (- 1) c_4 y ) ) 0) (>= (+ (* (- 1) _r_0 ) (* 1 _tmp_ c_2 ) (* 1 c_0 x ) (* 1 c_1 y ) (* 1 c_3 x ) (* 1 c_4 y ) ) 0) (>= (+ (* (- 1) 1) (* 1 x ) ) 0) (>= (+ (* (- 1) 1) (* 1 y ) ) 0) (>= (+ (* 1 _tmp_ c_24 ) (* 1 c_23 ) (* 1 c_25 oldx ) (* 1 c_26 oldy ) (* 1 c_27 x ) (* 1 c_28 y ) ) 0) (>= (+ (* 1 _tmp_ c_30 ) (* 1 c_29 ) (* 1 c_31 oldx ) (* 1 c_32 oldy ) (* 1 c_33 x ) (* 1 c_34 y ) ) 0) ) (>= (+ (* 1 _r_0 c_30 ) (* 1 c_29 ) (* 1 c_31 x ) (* 1 c_32 y ) (* (- 2) c_33 ) (* 1 c_33 y ) (* 1 c_34 ) (* 1 c_34 x ) ) 0) )))
(assert (forall ((oldx Real) (oldy Real) (_tmp_ Real) (x Real) (y Real) (_r_0 Real) ) (=> (and (>= (+ (* (- 1) 1) (* (- 1) _r_0 c_18 ) (* (- 1) c_17 ) (* (- 1) c_19 x ) (* (- 1) c_20 y ) (* 2 c_21 ) (* (- 1) c_21 y ) (* (- 1) c_22 ) (* (- 1) c_22 x ) ) 0) (>= (+ (* (- 1) 1) (* 1 _r_0 ) ) 0) (>= (+ (* 1 _r_0 ) (* (- 1) _tmp_ c_2 ) (* (- 1) c_0 x ) (* (- 1) c_1 y ) (* (- 1) c_3 x ) (* (- 1) c_4 y ) ) 0) (>= (+ (* (- 1) _r_0 ) (* 1 _tmp_ c_2 ) (* 1 c_0 x ) (* 1 c_1 y ) (* 1 c_3 x ) (* 1 c_4 y ) ) 0) (>= (+ (* (- 1) 1) (* 1 x ) ) 0) (>= (+ (* (- 1) 1) (* 1 y ) ) 0) (>= (+ (* 1 _tmp_ c_24 ) (* 1 c_23 ) (* 1 c_25 oldx ) (* 1 c_26 oldy ) (* 1 c_27 x ) (* 1 c_28 y ) ) 0) (>= (+ (* 1 _tmp_ c_30 ) (* 1 c_29 ) (* 1 c_31 oldx ) (* 1 c_32 oldy ) (* 1 c_33 x ) (* 1 c_34 y ) ) 0) ) (>= (+ (* 1 _r_0 c_24 ) (* 1 c_23 ) (* 1 c_25 x ) (* 1 c_26 y ) (* (- 2) c_27 ) (* 1 c_27 y ) (* 1 c_28 ) (* 1 c_28 x ) ) 0) )))
(assert (forall ((oldx Real) (oldy Real) (_tmp_ Real) (x Real) (y Real) (_r_0 Real) ) (=> (and (>= (+ (* (- 1) 1) (* (- 1) _r_0 c_18 ) (* (- 1) c_17 ) (* (- 1) c_19 x ) (* (- 1) c_20 y ) (* 2 c_21 ) (* (- 1) c_21 y ) (* (- 1) c_22 ) (* (- 1) c_22 x ) ) 0) (>= (+ (* (- 1) 1) (* 1 _r_0 ) ) 0) (>= (+ (* 1 _r_0 ) (* (- 1) _tmp_ c_2 ) (* (- 1) c_0 x ) (* (- 1) c_1 y ) (* (- 1) c_3 x ) (* (- 1) c_4 y ) ) 0) (>= (+ (* (- 1) _r_0 ) (* 1 _tmp_ c_2 ) (* 1 c_0 x ) (* 1 c_1 y ) (* 1 c_3 x ) (* 1 c_4 y ) ) 0) (>= (+ (* (- 1) 1) (* 1 x ) ) 0) (>= (+ (* (- 1) 1) (* 1 y ) ) 0) (>= (+ (* 1 _tmp_ c_24 ) (* 1 c_23 ) (* 1 c_25 oldx ) (* 1 c_26 oldy ) (* 1 c_27 x ) (* 1 c_28 y ) ) 0) (>= (+ (* 1 _tmp_ c_30 ) (* 1 c_29 ) (* 1 c_31 oldx ) (* 1 c_32 oldy ) (* 1 c_33 x ) (* 1 c_34 y ) ) 0) ) (>= (+ (* 1 _r_0 c_30 ) (* 1 c_29 ) (* 1 c_31 x ) (* 1 c_32 y ) (* (- 2) c_33 ) (* 1 c_33 y ) (* 1 c_34 ) (* 1 c_34 x ) ) 0) )))
(assert (forall ((oldx Real) (oldy Real) (_tmp_ Real) (x Real) (y Real) (_r_0 Real) ) (=> (and (>= (* (- 1) x ) 0) (>= (+ (* 1 _tmp_ c_12 ) (* 1 c_11 ) (* 1 c_13 oldx ) (* 1 c_14 oldy ) (* 1 c_15 x ) (* 1 c_16 y ) ) 0) (>= (+ (* 1 _tmp_ c_18 ) (* 1 c_17 ) (* 1 c_19 oldx ) (* 1 c_20 oldy ) (* 1 c_21 x ) (* 1 c_22 y ) ) 0) ) (>= (* 1 c_5 ) 0) )))
(assert (forall ((oldx Real) (oldy Real) (_tmp_ Real) (x Real) (y Real) (_r_0 Real) ) (=> (and (>= (* (- 1) x ) 0) (>= (+ (* 1 _tmp_ c_24 ) (* 1 c_23 ) (* 1 c_25 oldx ) (* 1 c_26 oldy ) (* 1 c_27 x ) (* 1 c_28 y ) ) 0) (>= (+ (* 1 _tmp_ c_30 ) (* 1 c_29 ) (* 1 c_31 oldx ) (* 1 c_32 oldy ) (* 1 c_33 x ) (* 1 c_34 y ) ) 0) ) (>= (* 1 c_5 ) 0) )))
(assert (forall ((oldx Real) (oldy Real) (_tmp_ Real) (x Real) (y Real) (_r_0 Real) ) (=> (and (>= (* (- 1) y ) 0) (>= (+ (* 1 _tmp_ c_12 ) (* 1 c_11 ) (* 1 c_13 oldx ) (* 1 c_14 oldy ) (* 1 c_15 x ) (* 1 c_16 y ) ) 0) (>= (+ (* 1 _tmp_ c_18 ) (* 1 c_17 ) (* 1 c_19 oldx ) (* 1 c_20 oldy ) (* 1 c_21 x ) (* 1 c_22 y ) ) 0) ) (>= (* 1 c_5 ) 0) )))
(assert (forall ((oldx Real) (oldy Real) (_tmp_ Real) (x Real) (y Real) (_r_0 Real) ) (=> (and (>= (* (- 1) y ) 0) (>= (+ (* 1 _tmp_ c_24 ) (* 1 c_23 ) (* 1 c_25 oldx ) (* 1 c_26 oldy ) (* 1 c_27 x ) (* 1 c_28 y ) ) 0) (>= (+ (* 1 _tmp_ c_30 ) (* 1 c_29 ) (* 1 c_31 oldx ) (* 1 c_32 oldy ) (* 1 c_33 x ) (* 1 c_34 y ) ) 0) ) (>= (* 1 c_5 ) 0) )))
(check-sat)
(get-model)

